c description: Random 3-CNF over 11 variables and 47 clauses
c generator: CNFgen (0.9.2)
c copyright: (C) 2012-2022 Massimo Lauria <massimo.lauria@uniroma1.it>
c url: https://massimolauria.net/cnfgen
c command line: cnfgen --output CNF_4.28/11_bit_47_457.cnf randkcnf 3 11 47
c
p cnf 11 47
2 -4 -6 0
-3 -10 -11 0
-5 8 11 0
3 4 -8 0
1 -4 5 0
-1 8 -10 0
2 6 9 0
5 7 9 0
2 -4 -8 0
-5 -8 -11 0
-3 8 -9 0
2 -8 10 0
3 6 7 0
5 -8 9 0
2 -6 -11 0
-1 10 11 0
-4 6 -7 0
-4 -5 7 0
-7 -9 -10 0
-4 -5 11 0
-1 -10 -11 0
-4 7 9 0
4 5 7 0
6 8 -9 0
3 -4 6 0
-8 -9 10 0
4 -8 11 0
2 4 6 0
-2 -8 10 0
3 4 9 0
1 -7 -11 0
-5 -6 8 0
-2 6 10 0
-2 -7 -11 0
2 -3 -11 0
3 5 9 0
-1 -2 -4 0
-2 -4 -11 0
-6 9 11 0
-1 -3 -9 0
1 -7 -8 0
-1 -2 -5 0
-7 9 11 0
1 9 -10 0
-1 -3 -4 0
4 -6 8 0
7 -8 -10 0
